Test: Urq3_5.cnf
Options: -no-inverting-opt -sym-usage-var-bump
WARNING: for repeatability, setting FPU to use double precision
============================[ Problem Statistics ]=============================
|                                                                             |
|  Number of symmetries:           29                                         |
|  Number of invertingSyms:        29                                         |
|  Number of variables:            46                                         |
|  Number of clauses:             470                                         |
|  Parse time:                   0.00 s                                       |
|                                                                             |
============================[ Search Statistics ]==============================
| Conflicts |          ORIGINAL         |          LEARNT          | Progress |
|           |    Vars  Clauses Literals |    Limit  Clauses Lit/Cl |          |
===============================================================================
|       100 |      46      470     2912 |      172      109     19 |  0.048 % |
|       250 |      46      470     2912 |      189      175     18 |  0.048 % |
|       475 |      46      470     2912 |      208      201     15 |  0.048 % |
|       812 |      46      470     2912 |      229      201     15 |  0.048 % |
|      1318 |      46      470     2912 |      252      140     14 |  0.048 % |
|      2077 |      46      470     2912 |      277      228     14 |  0.048 % |
|      3216 |      46      470     2912 |      305      211     13 |  0.048 % |
|      4924 |      46      470     2912 |      335      210     15 |  0.048 % |
|      7486 |      46      470     2912 |      369      263     14 |  0.048 % |
===============================================================================
restarts              : 46
conflicts             : 10539          (188186 /sec)
symconflicts          : 831            (14838 /sec)
decisions             : 16152          (0.00 % random) (288413 /sec)
propagations          : 67320          (1202078 /sec)
sympropagations       : 831            (14838 /sec)
conflict literals     : 169090         (2.90 % deleted)
literals     : 169090         (2.90 % deleted)

HEURISTIC USAGES
random                : 0           
activity w/ lookahead : 0           
activity no lookahead : 0           
original sp           : 16152       
sym count             : 0           

Memory used           : 5.00 MB
CPU time              : 0.056003 s

UNSATISFIABLE
